Minimize
 obj: 0 X_0_1
Subject To
 out_0:
  + 1 X_0_1 + 1 X_0_2 + 1 X_0_3 + 1 X_0_4 + 1 X_0_5 + 1 X_0_6 + 1 X_0_7 + 1 X_0_8
  + 1 X_0_9 + 1 X_0_10 + 1 X_0_11 + 1 X_0_12 + 1 X_0_13 + 1 X_0_14
  = 1
 in_0:
  + 1 X_1_0 + 1 X_2_0 + 1 X_3_0 + 1 X_4_0 + 1 X_5_0 + 1 X_6_0 + 1 X_7_0 + 1 X_8_0
  + 1 X_9_0 + 1 X_10_0 + 1 X_11_0 + 1 X_12_0 + 1 X_13_0 + 1 X_14_0
  = 1
 out_1:
  + 1 X_1_0 + 1 X_1_2 + 1 X_1_3 + 1 X_1_4 + 1 X_1_5 + 1 X_1_6 + 1 X_1_7 + 1 X_1_8
  + 1 X_1_9 + 1 X_1_10 + 1 X_1_11 + 1 X_1_12 + 1 X_1_13 + 1 X_1_14
  = 1
 in_1:
  + 1 X_0_1 + 1 X_2_1 + 1 X_3_1 + 1 X_4_1 + 1 X_5_1 + 1 X_6_1 + 1 X_7_1 + 1 X_8_1
  + 1 X_9_1 + 1 X_10_1 + 1 X_11_1 + 1 X_12_1 + 1 X_13_1 + 1 X_14_1
  = 1
 out_2:
  + 1 X_2_0 + 1 X_2_1 + 1 X_2_3 + 1 X_2_4 + 1 X_2_5 + 1 X_2_6 + 1 X_2_7 + 1 X_2_8
  + 1 X_2_9 + 1 X_2_10 + 1 X_2_11 + 1 X_2_12 + 1 X_2_13 + 1 X_2_14
  = 1
 in_2:
  + 1 X_0_2 + 1 X_1_2 + 1 X_3_2 + 1 X_4_2 + 1 X_5_2 + 1 X_6_2 + 1 X_7_2 + 1 X_8_2
  + 1 X_9_2 + 1 X_10_2 + 1 X_11_2 + 1 X_12_2 + 1 X_13_2 + 1 X_14_2
  = 1
 out_3:
  + 1 X_3_0 + 1 X_3_1 + 1 X_3_2 + 1 X_3_4 + 1 X_3_5 + 1 X_3_6 + 1 X_3_7 + 1 X_3_8
  + 1 X_3_9 + 1 X_3_10 + 1 X_3_11 + 1 X_3_12 + 1 X_3_13 + 1 X_3_14
  = 1
 in_3:
  + 1 X_0_3 + 1 X_1_3 + 1 X_2_3 + 1 X_4_3 + 1 X_5_3 + 1 X_6_3 + 1 X_7_3 + 1 X_8_3
  + 1 X_9_3 + 1 X_10_3 + 1 X_11_3 + 1 X_12_3 + 1 X_13_3 + 1 X_14_3
  = 1
 out_4:
  + 1 X_4_0 + 1 X_4_1 + 1 X_4_2 + 1 X_4_3 + 1 X_4_5 + 1 X_4_6 + 1 X_4_7 + 1 X_4_8
  + 1 X_4_9 + 1 X_4_10 + 1 X_4_11 + 1 X_4_12 + 1 X_4_13 + 1 X_4_14
  = 1
 in_4:
  + 1 X_0_4 + 1 X_1_4 + 1 X_2_4 + 1 X_3_4 + 1 X_5_4 + 1 X_6_4 + 1 X_7_4 + 1 X_8_4
  + 1 X_9_4 + 1 X_10_4 + 1 X_11_4 + 1 X_12_4 + 1 X_13_4 + 1 X_14_4
  = 1
 out_5:
  + 1 X_5_0 + 1 X_5_1 + 1 X_5_2 + 1 X_5_3 + 1 X_5_4 + 1 X_5_6 + 1 X_5_7 + 1 X_5_8
  + 1 X_5_9 + 1 X_5_10 + 1 X_5_11 + 1 X_5_12 + 1 X_5_13 + 1 X_5_14
  = 1
 in_5:
  + 1 X_0_5 + 1 X_1_5 + 1 X_2_5 + 1 X_3_5 + 1 X_4_5 + 1 X_6_5 + 1 X_7_5 + 1 X_8_5
  + 1 X_9_5 + 1 X_10_5 + 1 X_11_5 + 1 X_12_5 + 1 X_13_5 + 1 X_14_5
  = 1
 out_6:
  + 1 X_6_0 + 1 X_6_1 + 1 X_6_2 + 1 X_6_3 + 1 X_6_4 + 1 X_6_5 + 1 X_6_7 + 1 X_6_8
  + 1 X_6_9 + 1 X_6_10 + 1 X_6_11 + 1 X_6_12 + 1 X_6_13 + 1 X_6_14
  = 1
 in_6:
  + 1 X_0_6 + 1 X_1_6 + 1 X_2_6 + 1 X_3_6 + 1 X_4_6 + 1 X_5_6 + 1 X_7_6 + 1 X_8_6
  + 1 X_9_6 + 1 X_10_6 + 1 X_11_6 + 1 X_12_6 + 1 X_13_6 + 1 X_14_6
  = 1
 out_7:
  + 1 X_7_0 + 1 X_7_1 + 1 X_7_2 + 1 X_7_3 + 1 X_7_4 + 1 X_7_5 + 1 X_7_6 + 1 X_7_8
  + 1 X_7_9 + 1 X_7_10 + 1 X_7_11 + 1 X_7_12 + 1 X_7_13 + 1 X_7_14
  = 1
 in_7:
  + 1 X_0_7 + 1 X_1_7 + 1 X_2_7 + 1 X_3_7 + 1 X_4_7 + 1 X_5_7 + 1 X_6_7 + 1 X_8_7
  + 1 X_9_7 + 1 X_10_7 + 1 X_11_7 + 1 X_12_7 + 1 X_13_7 + 1 X_14_7
  = 1
 out_8:
  + 1 X_8_0 + 1 X_8_1 + 1 X_8_2 + 1 X_8_3 + 1 X_8_4 + 1 X_8_5 + 1 X_8_6 + 1 X_8_7
  + 1 X_8_9 + 1 X_8_10 + 1 X_8_11 + 1 X_8_12 + 1 X_8_13 + 1 X_8_14
  = 1
 in_8:
  + 1 X_0_8 + 1 X_1_8 + 1 X_2_8 + 1 X_3_8 + 1 X_4_8 + 1 X_5_8 + 1 X_6_8 + 1 X_7_8
  + 1 X_9_8 + 1 X_10_8 + 1 X_11_8 + 1 X_12_8 + 1 X_13_8 + 1 X_14_8
  = 1
 out_9:
  + 1 X_9_0 + 1 X_9_1 + 1 X_9_2 + 1 X_9_3 + 1 X_9_4 + 1 X_9_5 + 1 X_9_6 + 1 X_9_7
  + 1 X_9_8 + 1 X_9_10 + 1 X_9_11 + 1 X_9_12 + 1 X_9_13 + 1 X_9_14
  = 1
 in_9:
  + 1 X_0_9 + 1 X_1_9 + 1 X_2_9 + 1 X_3_9 + 1 X_4_9 + 1 X_5_9 + 1 X_6_9 + 1 X_7_9
  + 1 X_8_9 + 1 X_10_9 + 1 X_11_9 + 1 X_12_9 + 1 X_13_9 + 1 X_14_9
  = 1
 out_10:
  + 1 X_10_0 + 1 X_10_1 + 1 X_10_2 + 1 X_10_3 + 1 X_10_4 + 1 X_10_5 + 1 X_10_6 + 1 X_10_7
  + 1 X_10_8 + 1 X_10_9 + 1 X_10_11 + 1 X_10_12 + 1 X_10_13 + 1 X_10_14
  = 1
 in_10:
  + 1 X_0_10 + 1 X_1_10 + 1 X_2_10 + 1 X_3_10 + 1 X_4_10 + 1 X_5_10 + 1 X_6_10 + 1 X_7_10
  + 1 X_8_10 + 1 X_9_10 + 1 X_11_10 + 1 X_12_10 + 1 X_13_10 + 1 X_14_10
  = 1
 out_11:
  + 1 X_11_0 + 1 X_11_1 + 1 X_11_2 + 1 X_11_3 + 1 X_11_4 + 1 X_11_5 + 1 X_11_6 + 1 X_11_7
  + 1 X_11_8 + 1 X_11_9 + 1 X_11_10 + 1 X_11_12 + 1 X_11_13 + 1 X_11_14
  = 1
 in_11:
  + 1 X_0_11 + 1 X_1_11 + 1 X_2_11 + 1 X_3_11 + 1 X_4_11 + 1 X_5_11 + 1 X_6_11 + 1 X_7_11
  + 1 X_8_11 + 1 X_9_11 + 1 X_10_11 + 1 X_12_11 + 1 X_13_11 + 1 X_14_11
  = 1
 out_12:
  + 1 X_12_0 + 1 X_12_1 + 1 X_12_2 + 1 X_12_3 + 1 X_12_4 + 1 X_12_5 + 1 X_12_6 + 1 X_12_7
  + 1 X_12_8 + 1 X_12_9 + 1 X_12_10 + 1 X_12_11 + 1 X_12_13 + 1 X_12_14
  = 1
 in_12:
  + 1 X_0_12 + 1 X_1_12 + 1 X_2_12 + 1 X_3_12 + 1 X_4_12 + 1 X_5_12 + 1 X_6_12 + 1 X_7_12
  + 1 X_8_12 + 1 X_9_12 + 1 X_10_12 + 1 X_11_12 + 1 X_13_12 + 1 X_14_12
  = 1
 out_13:
  + 1 X_13_0 + 1 X_13_1 + 1 X_13_2 + 1 X_13_3 + 1 X_13_4 + 1 X_13_5 + 1 X_13_6 + 1 X_13_7
  + 1 X_13_8 + 1 X_13_9 + 1 X_13_10 + 1 X_13_11 + 1 X_13_12 + 1 X_13_14
  = 1
 in_13:
  + 1 X_0_13 + 1 X_1_13 + 1 X_2_13 + 1 X_3_13 + 1 X_4_13 + 1 X_5_13 + 1 X_6_13 + 1 X_7_13
  + 1 X_8_13 + 1 X_9_13 + 1 X_10_13 + 1 X_11_13 + 1 X_12_13 + 1 X_14_13
  = 1
 out_14:
  + 1 X_14_0 + 1 X_14_1 + 1 X_14_2 + 1 X_14_3 + 1 X_14_4 + 1 X_14_5 + 1 X_14_6 + 1 X_14_7
  + 1 X_14_8 + 1 X_14_9 + 1 X_14_10 + 1 X_14_11 + 1 X_14_12 + 1 X_14_13
  = 1
 in_14:
  + 1 X_0_14 + 1 X_1_14 + 1 X_2_14 + 1 X_3_14 + 1 X_4_14 + 1 X_5_14 + 1 X_6_14 + 1 X_7_14
  + 1 X_8_14 + 1 X_9_14 + 1 X_10_14 + 1 X_11_14 + 1 X_12_14 + 1 X_13_14
  = 1
 mtz_1_2:
  + 1 U1 - 1 U2 + 14 X_1_2
  <= 13
 mtz_1_3:
  + 1 U1 - 1 U3 + 14 X_1_3
  <= 13
 mtz_1_4:
  + 1 U1 - 1 U4 + 14 X_1_4
  <= 13
 mtz_1_5:
  + 1 U1 - 1 U5 + 14 X_1_5
  <= 13
 mtz_1_6:
  + 1 U1 - 1 U6 + 14 X_1_6
  <= 13
 mtz_1_7:
  + 1 U1 - 1 U7 + 14 X_1_7
  <= 13
 mtz_1_8:
  + 1 U1 - 1 U8 + 14 X_1_8
  <= 13
 mtz_1_9:
  + 1 U1 - 1 U9 + 14 X_1_9
  <= 13
 mtz_1_10:
  + 1 U1 - 1 U10 + 14 X_1_10
  <= 13
 mtz_1_11:
  + 1 U1 - 1 U11 + 14 X_1_11
  <= 13
 mtz_1_12:
  + 1 U1 - 1 U12 + 14 X_1_12
  <= 13
 mtz_1_13:
  + 1 U1 - 1 U13 + 14 X_1_13
  <= 13
 mtz_1_14:
  + 1 U1 - 1 U14 + 14 X_1_14
  <= 13
 mtz_2_1:
  + 1 U2 - 1 U1 + 14 X_2_1
  <= 13
 mtz_2_3:
  + 1 U2 - 1 U3 + 14 X_2_3
  <= 13
 mtz_2_4:
  + 1 U2 - 1 U4 + 14 X_2_4
  <= 13
 mtz_2_5:
  + 1 U2 - 1 U5 + 14 X_2_5
  <= 13
 mtz_2_6:
  + 1 U2 - 1 U6 + 14 X_2_6
  <= 13
 mtz_2_7:
  + 1 U2 - 1 U7 + 14 X_2_7
  <= 13
 mtz_2_8:
  + 1 U2 - 1 U8 + 14 X_2_8
  <= 13
 mtz_2_9:
  + 1 U2 - 1 U9 + 14 X_2_9
  <= 13
 mtz_2_10:
  + 1 U2 - 1 U10 + 14 X_2_10
  <= 13
 mtz_2_11:
  + 1 U2 - 1 U11 + 14 X_2_11
  <= 13
 mtz_2_12:
  + 1 U2 - 1 U12 + 14 X_2_12
  <= 13
 mtz_2_13:
  + 1 U2 - 1 U13 + 14 X_2_13
  <= 13
 mtz_2_14:
  + 1 U2 - 1 U14 + 14 X_2_14
  <= 13
 mtz_3_1:
  + 1 U3 - 1 U1 + 14 X_3_1
  <= 13
 mtz_3_2:
  + 1 U3 - 1 U2 + 14 X_3_2
  <= 13
 mtz_3_4:
  + 1 U3 - 1 U4 + 14 X_3_4
  <= 13
 mtz_3_5:
  + 1 U3 - 1 U5 + 14 X_3_5
  <= 13
 mtz_3_6:
  + 1 U3 - 1 U6 + 14 X_3_6
  <= 13
 mtz_3_7:
  + 1 U3 - 1 U7 + 14 X_3_7
  <= 13
 mtz_3_8:
  + 1 U3 - 1 U8 + 14 X_3_8
  <= 13
 mtz_3_9:
  + 1 U3 - 1 U9 + 14 X_3_9
  <= 13
 mtz_3_10:
  + 1 U3 - 1 U10 + 14 X_3_10
  <= 13
 mtz_3_11:
  + 1 U3 - 1 U11 + 14 X_3_11
  <= 13
 mtz_3_12:
  + 1 U3 - 1 U12 + 14 X_3_12
  <= 13
 mtz_3_13:
  + 1 U3 - 1 U13 + 14 X_3_13
  <= 13
 mtz_3_14:
  + 1 U3 - 1 U14 + 14 X_3_14
  <= 13
 mtz_4_1:
  + 1 U4 - 1 U1 + 14 X_4_1
  <= 13
 mtz_4_2:
  + 1 U4 - 1 U2 + 14 X_4_2
  <= 13
 mtz_4_3:
  + 1 U4 - 1 U3 + 14 X_4_3
  <= 13
 mtz_4_5:
  + 1 U4 - 1 U5 + 14 X_4_5
  <= 13
 mtz_4_6:
  + 1 U4 - 1 U6 + 14 X_4_6
  <= 13
 mtz_4_7:
  + 1 U4 - 1 U7 + 14 X_4_7
  <= 13
 mtz_4_8:
  + 1 U4 - 1 U8 + 14 X_4_8
  <= 13
 mtz_4_9:
  + 1 U4 - 1 U9 + 14 X_4_9
  <= 13
 mtz_4_10:
  + 1 U4 - 1 U10 + 14 X_4_10
  <= 13
 mtz_4_11:
  + 1 U4 - 1 U11 + 14 X_4_11
  <= 13
 mtz_4_12:
  + 1 U4 - 1 U12 + 14 X_4_12
  <= 13
 mtz_4_13:
  + 1 U4 - 1 U13 + 14 X_4_13
  <= 13
 mtz_4_14:
  + 1 U4 - 1 U14 + 14 X_4_14
  <= 13
 mtz_5_1:
  + 1 U5 - 1 U1 + 14 X_5_1
  <= 13
 mtz_5_2:
  + 1 U5 - 1 U2 + 14 X_5_2
  <= 13
 mtz_5_3:
  + 1 U5 - 1 U3 + 14 X_5_3
  <= 13
 mtz_5_4:
  + 1 U5 - 1 U4 + 14 X_5_4
  <= 13
 mtz_5_6:
  + 1 U5 - 1 U6 + 14 X_5_6
  <= 13
 mtz_5_7:
  + 1 U5 - 1 U7 + 14 X_5_7
  <= 13
 mtz_5_8:
  + 1 U5 - 1 U8 + 14 X_5_8
  <= 13
 mtz_5_9:
  + 1 U5 - 1 U9 + 14 X_5_9
  <= 13
 mtz_5_10:
  + 1 U5 - 1 U10 + 14 X_5_10
  <= 13
 mtz_5_11:
  + 1 U5 - 1 U11 + 14 X_5_11
  <= 13
 mtz_5_12:
  + 1 U5 - 1 U12 + 14 X_5_12
  <= 13
 mtz_5_13:
  + 1 U5 - 1 U13 + 14 X_5_13
  <= 13
 mtz_5_14:
  + 1 U5 - 1 U14 + 14 X_5_14
  <= 13
 mtz_6_1:
  + 1 U6 - 1 U1 + 14 X_6_1
  <= 13
 mtz_6_2:
  + 1 U6 - 1 U2 + 14 X_6_2
  <= 13
 mtz_6_3:
  + 1 U6 - 1 U3 + 14 X_6_3
  <= 13
 mtz_6_4:
  + 1 U6 - 1 U4 + 14 X_6_4
  <= 13
 mtz_6_5:
  + 1 U6 - 1 U5 + 14 X_6_5
  <= 13
 mtz_6_7:
  + 1 U6 - 1 U7 + 14 X_6_7
  <= 13
 mtz_6_8:
  + 1 U6 - 1 U8 + 14 X_6_8
  <= 13
 mtz_6_9:
  + 1 U6 - 1 U9 + 14 X_6_9
  <= 13
 mtz_6_10:
  + 1 U6 - 1 U10 + 14 X_6_10
  <= 13
 mtz_6_11:
  + 1 U6 - 1 U11 + 14 X_6_11
  <= 13
 mtz_6_12:
  + 1 U6 - 1 U12 + 14 X_6_12
  <= 13
 mtz_6_13:
  + 1 U6 - 1 U13 + 14 X_6_13
  <= 13
 mtz_6_14:
  + 1 U6 - 1 U14 + 14 X_6_14
  <= 13
 mtz_7_1:
  + 1 U7 - 1 U1 + 14 X_7_1
  <= 13
 mtz_7_2:
  + 1 U7 - 1 U2 + 14 X_7_2
  <= 13
 mtz_7_3:
  + 1 U7 - 1 U3 + 14 X_7_3
  <= 13
 mtz_7_4:
  + 1 U7 - 1 U4 + 14 X_7_4
  <= 13
 mtz_7_5:
  + 1 U7 - 1 U5 + 14 X_7_5
  <= 13
 mtz_7_6:
  + 1 U7 - 1 U6 + 14 X_7_6
  <= 13
 mtz_7_8:
  + 1 U7 - 1 U8 + 14 X_7_8
  <= 13
 mtz_7_9:
  + 1 U7 - 1 U9 + 14 X_7_9
  <= 13
 mtz_7_10:
  + 1 U7 - 1 U10 + 14 X_7_10
  <= 13
 mtz_7_11:
  + 1 U7 - 1 U11 + 14 X_7_11
  <= 13
 mtz_7_12:
  + 1 U7 - 1 U12 + 14 X_7_12
  <= 13
 mtz_7_13:
  + 1 U7 - 1 U13 + 14 X_7_13
  <= 13
 mtz_7_14:
  + 1 U7 - 1 U14 + 14 X_7_14
  <= 13
 mtz_8_1:
  + 1 U8 - 1 U1 + 14 X_8_1
  <= 13
 mtz_8_2:
  + 1 U8 - 1 U2 + 14 X_8_2
  <= 13
 mtz_8_3:
  + 1 U8 - 1 U3 + 14 X_8_3
  <= 13
 mtz_8_4:
  + 1 U8 - 1 U4 + 14 X_8_4
  <= 13
 mtz_8_5:
  + 1 U8 - 1 U5 + 14 X_8_5
  <= 13
 mtz_8_6:
  + 1 U8 - 1 U6 + 14 X_8_6
  <= 13
 mtz_8_7:
  + 1 U8 - 1 U7 + 14 X_8_7
  <= 13
 mtz_8_9:
  + 1 U8 - 1 U9 + 14 X_8_9
  <= 13
 mtz_8_10:
  + 1 U8 - 1 U10 + 14 X_8_10
  <= 13
 mtz_8_11:
  + 1 U8 - 1 U11 + 14 X_8_11
  <= 13
 mtz_8_12:
  + 1 U8 - 1 U12 + 14 X_8_12
  <= 13
 mtz_8_13:
  + 1 U8 - 1 U13 + 14 X_8_13
  <= 13
 mtz_8_14:
  + 1 U8 - 1 U14 + 14 X_8_14
  <= 13
 mtz_9_1:
  + 1 U9 - 1 U1 + 14 X_9_1
  <= 13
 mtz_9_2:
  + 1 U9 - 1 U2 + 14 X_9_2
  <= 13
 mtz_9_3:
  + 1 U9 - 1 U3 + 14 X_9_3
  <= 13
 mtz_9_4:
  + 1 U9 - 1 U4 + 14 X_9_4
  <= 13
 mtz_9_5:
  + 1 U9 - 1 U5 + 14 X_9_5
  <= 13
 mtz_9_6:
  + 1 U9 - 1 U6 + 14 X_9_6
  <= 13
 mtz_9_7:
  + 1 U9 - 1 U7 + 14 X_9_7
  <= 13
 mtz_9_8:
  + 1 U9 - 1 U8 + 14 X_9_8
  <= 13
 mtz_9_10:
  + 1 U9 - 1 U10 + 14 X_9_10
  <= 13
 mtz_9_11:
  + 1 U9 - 1 U11 + 14 X_9_11
  <= 13
 mtz_9_12:
  + 1 U9 - 1 U12 + 14 X_9_12
  <= 13
 mtz_9_13:
  + 1 U9 - 1 U13 + 14 X_9_13
  <= 13
 mtz_9_14:
  + 1 U9 - 1 U14 + 14 X_9_14
  <= 13
 mtz_10_1:
  + 1 U10 - 1 U1 + 14 X_10_1
  <= 13
 mtz_10_2:
  + 1 U10 - 1 U2 + 14 X_10_2
  <= 13
 mtz_10_3:
  + 1 U10 - 1 U3 + 14 X_10_3
  <= 13
 mtz_10_4:
  + 1 U10 - 1 U4 + 14 X_10_4
  <= 13
 mtz_10_5:
  + 1 U10 - 1 U5 + 14 X_10_5
  <= 13
 mtz_10_6:
  + 1 U10 - 1 U6 + 14 X_10_6
  <= 13
 mtz_10_7:
  + 1 U10 - 1 U7 + 14 X_10_7
  <= 13
 mtz_10_8:
  + 1 U10 - 1 U8 + 14 X_10_8
  <= 13
 mtz_10_9:
  + 1 U10 - 1 U9 + 14 X_10_9
  <= 13
 mtz_10_11:
  + 1 U10 - 1 U11 + 14 X_10_11
  <= 13
 mtz_10_12:
  + 1 U10 - 1 U12 + 14 X_10_12
  <= 13
 mtz_10_13:
  + 1 U10 - 1 U13 + 14 X_10_13
  <= 13
 mtz_10_14:
  + 1 U10 - 1 U14 + 14 X_10_14
  <= 13
 mtz_11_1:
  + 1 U11 - 1 U1 + 14 X_11_1
  <= 13
 mtz_11_2:
  + 1 U11 - 1 U2 + 14 X_11_2
  <= 13
 mtz_11_3:
  + 1 U11 - 1 U3 + 14 X_11_3
  <= 13
 mtz_11_4:
  + 1 U11 - 1 U4 + 14 X_11_4
  <= 13
 mtz_11_5:
  + 1 U11 - 1 U5 + 14 X_11_5
  <= 13
 mtz_11_6:
  + 1 U11 - 1 U6 + 14 X_11_6
  <= 13
 mtz_11_7:
  + 1 U11 - 1 U7 + 14 X_11_7
  <= 13
 mtz_11_8:
  + 1 U11 - 1 U8 + 14 X_11_8
  <= 13
 mtz_11_9:
  + 1 U11 - 1 U9 + 14 X_11_9
  <= 13
 mtz_11_10:
  + 1 U11 - 1 U10 + 14 X_11_10
  <= 13
 mtz_11_12:
  + 1 U11 - 1 U12 + 14 X_11_12
  <= 13
 mtz_11_13:
  + 1 U11 - 1 U13 + 14 X_11_13
  <= 13
 mtz_11_14:
  + 1 U11 - 1 U14 + 14 X_11_14
  <= 13
 mtz_12_1:
  + 1 U12 - 1 U1 + 14 X_12_1
  <= 13
 mtz_12_2:
  + 1 U12 - 1 U2 + 14 X_12_2
  <= 13
 mtz_12_3:
  + 1 U12 - 1 U3 + 14 X_12_3
  <= 13
 mtz_12_4:
  + 1 U12 - 1 U4 + 14 X_12_4
  <= 13
 mtz_12_5:
  + 1 U12 - 1 U5 + 14 X_12_5
  <= 13
 mtz_12_6:
  + 1 U12 - 1 U6 + 14 X_12_6
  <= 13
 mtz_12_7:
  + 1 U12 - 1 U7 + 14 X_12_7
  <= 13
 mtz_12_8:
  + 1 U12 - 1 U8 + 14 X_12_8
  <= 13
 mtz_12_9:
  + 1 U12 - 1 U9 + 14 X_12_9
  <= 13
 mtz_12_10:
  + 1 U12 - 1 U10 + 14 X_12_10
  <= 13
 mtz_12_11:
  + 1 U12 - 1 U11 + 14 X_12_11
  <= 13
 mtz_12_13:
  + 1 U12 - 1 U13 + 14 X_12_13
  <= 13
 mtz_12_14:
  + 1 U12 - 1 U14 + 14 X_12_14
  <= 13
 mtz_13_1:
  + 1 U13 - 1 U1 + 14 X_13_1
  <= 13
 mtz_13_2:
  + 1 U13 - 1 U2 + 14 X_13_2
  <= 13
 mtz_13_3:
  + 1 U13 - 1 U3 + 14 X_13_3
  <= 13
 mtz_13_4:
  + 1 U13 - 1 U4 + 14 X_13_4
  <= 13
 mtz_13_5:
  + 1 U13 - 1 U5 + 14 X_13_5
  <= 13
 mtz_13_6:
  + 1 U13 - 1 U6 + 14 X_13_6
  <= 13
 mtz_13_7:
  + 1 U13 - 1 U7 + 14 X_13_7
  <= 13
 mtz_13_8:
  + 1 U13 - 1 U8 + 14 X_13_8
  <= 13
 mtz_13_9:
  + 1 U13 - 1 U9 + 14 X_13_9
  <= 13
 mtz_13_10:
  + 1 U13 - 1 U10 + 14 X_13_10
  <= 13
 mtz_13_11:
  + 1 U13 - 1 U11 + 14 X_13_11
  <= 13
 mtz_13_12:
  + 1 U13 - 1 U12 + 14 X_13_12
  <= 13
 mtz_13_14:
  + 1 U13 - 1 U14 + 14 X_13_14
  <= 13
 mtz_14_1:
  + 1 U14 - 1 U1 + 14 X_14_1
  <= 13
 mtz_14_2:
  + 1 U14 - 1 U2 + 14 X_14_2
  <= 13
 mtz_14_3:
  + 1 U14 - 1 U3 + 14 X_14_3
  <= 13
 mtz_14_4:
  + 1 U14 - 1 U4 + 14 X_14_4
  <= 13
 mtz_14_5:
  + 1 U14 - 1 U5 + 14 X_14_5
  <= 13
 mtz_14_6:
  + 1 U14 - 1 U6 + 14 X_14_6
  <= 13
 mtz_14_7:
  + 1 U14 - 1 U7 + 14 X_14_7
  <= 13
 mtz_14_8:
  + 1 U14 - 1 U8 + 14 X_14_8
  <= 13
 mtz_14_9:
  + 1 U14 - 1 U9 + 14 X_14_9
  <= 13
 mtz_14_10:
  + 1 U14 - 1 U10 + 14 X_14_10
  <= 13
 mtz_14_11:
  + 1 U14 - 1 U11 + 14 X_14_11
  <= 13
 mtz_14_12:
  + 1 U14 - 1 U12 + 14 X_14_12
  <= 13
 mtz_14_13:
  + 1 U14 - 1 U13 + 14 X_14_13
  <= 13
 obj1:
  + 830 X_0_1 + 1020 X_0_2 + 615 X_0_3 + 340 X_0_4 + 751 X_0_5 + 182 X_0_6 + 640 X_0_7 + 943 X_0_8
  + 217 X_0_9 + 411 X_0_10 + 564 X_0_11 + 476 X_0_12 + 357 X_0_13 + 673 X_0_14 + 830 X_1_0 + 299 X_1_2
  + 588 X_1_3 + 589 X_1_4 + 572 X_1_5 + 672 X_1_6 + 570 X_1_7 + 575 X_1_8 + 856 X_1_9 + 948 X_1_10
  + 644 X_1_11 + 633 X_1_12 + 501 X_1_13 + 188 X_1_14 + 1020 X_2_0 + 299 X_2_1 + 884 X_2_3 + 714 X_2_4
  + 871 X_2_5 + 843 X_2_6 + 867 X_2_7 + 857 X_2_8 + 1093 X_2_9 + 1211 X_2_10 + 936 X_2_11 + 915 X_2_12
  + 742 X_2_13 + 473 X_2_14 + 615 X_3_0 + 588 X_3_1 + 884 X_3_2 + 654 X_3_4 + 140 X_3_5 + 584 X_3_6
  + 31 X_3_7 + 344 X_3_8 + 484 X_3_9 + 460 X_3_10 + 78 X_3_11 + 145 X_3_12 + 340 X_3_13 + 412 X_3_14
  + 340 X_4_0 + 589 X_4_1 + 714 X_4_2 + 654 X_4_3 + 757 X_4_5 + 163 X_4_6 + 665 X_4_7 + 904 X_4_8
  + 498 X_4_9 + 680 X_4_10 + 641 X_4_11 + 561 X_4_12 + 314 X_4_13 + 488 X_4_14 + 751 X_5_0 + 572 X_5_1
  + 871 X_5_2 + 140 X_5_3 + 757 X_5_4 + 705 X_5_6 + 112 X_5_7 + 205 X_5_8 + 624 X_5_9 + 589 X_5_10
  + 211 X_5_11 + 285 X_5_12 + 451 X_5_13 + 424 X_5_14 + 182 X_6_0 + 672 X_6_1 + 843 X_6_2 + 584 X_6_3
  + 163 X_6_4 + 705 X_6_5 + 601 X_6_7 + 878 X_6_8 + 339 X_6_9 + 526 X_6_10 + 553 X_6_11 + 466 X_6_12
  + 259 X_6_13 + 533 X_6_14 + 640 X_7_0 + 570 X_7_1 + 867 X_7_2 + 31 X_7_3 + 665 X_7_4 + 112 X_7_5
  + 601 X_7_6 + 314 X_7_8 + 513 X_7_9 + 491 X_7_10 + 109 X_7_11 + 174 X_7_12 + 353 X_7_13 + 399 X_7_14
  + 943 X_8_0 + 575 X_8_1 + 857 X_8_2 + 344 X_8_3 + 904 X_8_4 + 205 X_8_5 + 878 X_8_6 + 314 X_8_7
  + 828 X_8_9 + 792 X_8_10 + 417 X_8_11 + 488 X_8_12 + 618 X_8_13 + 483 X_8_14 + 217 X_9_0 + 856 X_9_1
  + 1093 X_9_2 + 484 X_9_3 + 498 X_9_4 + 624 X_9_5 + 339 X_9_6 + 513 X_9_7 + 828 X_9_8 + 195 X_9_10
  + 416 X_9_11 + 339 X_9_12 + 355 X_9_13 + 675 X_9_14 + 411 X_10_0 + 948 X_10_1 + 1211 X_10_2 + 460 X_10_3
  + 680 X_10_4 + 589 X_10_5 + 526 X_10_6 + 491 X_10_7 + 792 X_10_8 + 195 X_10_9 + 382 X_10_11 + 338 X_10_12
  + 474 X_10_13 + 760 X_10_14 + 564 X_11_0 + 644 X_11_1 + 936 X_11_2 + 78 X_11_3 + 641 X_11_4 + 211 X_11_5
  + 553 X_11_6 + 109 X_11_7 + 417 X_11_8 + 416 X_11_9 + 382 X_11_10 + 89 X_11_12 + 329 X_11_13 + 463 X_11_14
  + 476 X_12_0 + 633 X_12_1 + 915 X_12_2 + 145 X_12_3 + 561 X_12_4 + 285 X_12_5 + 466 X_12_6 + 174 X_12_7
  + 488 X_12_8 + 339 X_12_9 + 338 X_12_10 + 89 X_12_11 + 255 X_12_13 + 445 X_12_14 + 357 X_13_0 + 501 X_13_1
  + 742 X_13_2 + 340 X_13_3 + 314 X_13_4 + 451 X_13_5 + 259 X_13_6 + 353 X_13_7 + 618 X_13_8 + 355 X_13_9
  + 474 X_13_10 + 329 X_13_11 + 255 X_13_12 + 326 X_13_14 + 673 X_14_0 + 188 X_14_1 + 473 X_14_2 + 412 X_14_3
  + 488 X_14_4 + 424 X_14_5 + 533 X_14_6 + 399 X_14_7 + 483 X_14_8 + 675 X_14_9 + 760 X_14_10 + 463 X_14_11
  + 445 X_14_12 + 326 X_14_13
  <= 1
 obj2:
  + 364 X_0_1 + 235 X_0_2 + 409 X_0_3 + 611 X_0_4 + 353 X_0_5 + 496 X_0_6 + 448 X_0_7 + 442 X_0_8
  + 339 X_0_9 + 383 X_0_10 + 641 X_0_11 + 293 X_0_12 + 623 X_0_13 + 523 X_0_14 + 364 X_1_0 + 341 X_1_2
  + 92 X_1_3 + 247 X_1_4 + 319 X_1_5 + 712 X_1_6 + 259 X_1_7 + 621 X_1_8 + 609 X_1_9 + 738 X_1_10
  + 291 X_1_11 + 624 X_1_12 + 269 X_1_13 + 674 X_1_14 + 235 X_2_0 + 341 X_2_1 + 327 X_2_3 + 545 X_2_4
  + 509 X_2_5 + 732 X_2_6 + 270 X_2_7 + 673 X_2_8 + 574 X_2_9 + 571 X_2_10 + 540 X_2_11 + 513 X_2_12
  + 603 X_2_13 + 751 X_2_14 + 409 X_3_0 + 92 X_3_1 + 327 X_3_2 + 218 X_3_4 + 411 X_3_5 + 796 X_3_6
  + 177 X_3_7 + 707 X_3_8 + 684 X_3_9 + 791 X_3_10 + 232 X_3_11 + 686 X_3_12 + 281 X_3_13 + 763 X_3_14
  + 611 X_4_0 + 247 X_4_1 + 545 X_4_2 + 218 X_4_3 + 502 X_4_5 + 927 X_4_6 + 338 X_4_7 + 830 X_4_8
  + 843 X_4_9 + 985 X_4_10 + 94 X_4_11 + 869 X_4_12 + 121 X_4_13 + 869 X_4_14 + 353 X_5_0 + 319 X_5_1
  + 509 X_5_2 + 411 X_5_3 + 502 X_5_4 + 430 X_5_6 + 561 X_5_7 + 330 X_5_8 + 383 X_5_9 + 598 X_5_10
  + 578 X_5_11 + 460 X_5_12 + 443 X_5_13 + 367 X_5_14 + 496 X_6_0 + 712 X_6_1 + 732 X_6_2 + 796 X_6_3
  + 927 X_6_4 + 430 X_6_5 + 904 X_6_7 + 101 X_6_8 + 170 X_6_9 + 389 X_6_10 + 995 X_6_11 + 294 X_6_12
  + 874 X_6_13 + 122 X_6_14 + 448 X_7_0 + 259 X_7_1 + 270 X_7_2 + 177 X_7_3 + 338 X_7_4 + 561 X_7_5
  + 904 X_7_6 + 825 X_7_8 + 769 X_7_9 + 822 X_7_10 + 299 X_7_11 + 741 X_7_12 + 434 X_7_13 + 890 X_7_14
  + 442 X_8_0 + 621 X_8_1 + 673 X_8_2 + 707 X_8_3 + 830 X_8_4 + 330 X_8_5 + 101 X_8_6 + 825 X_8_7
  + 168 X_8_9 + 422 X_8_10 + 900 X_8_11 + 302 X_8_12 + 774 X_8_13 + 84 X_8_14 + 339 X_9_0 + 609 X_9_1
  + 574 X_9_2 + 684 X_9_3 + 843 X_9_4 + 383 X_9_5 + 170 X_9_6 + 769 X_9_7 + 168 X_9_8 + 258 X_9_10
  + 900 X_9_11 + 134 X_9_12 + 810 X_9_13 + 247 X_9_14 + 383 X_10_0 + 738 X_10_1 + 571 X_10_2 + 791 X_10_3
  + 985 X_10_4 + 598 X_10_5 + 389 X_10_6 + 822 X_10_7 + 422 X_10_8 + 258 X_10_9 + 1022 X_10_11 + 138 X_10_12
  + 979 X_10_13 + 495 X_10_14 + 641 X_11_0 + 291 X_11_1 + 540 X_11_2 + 232 X_11_3 + 94 X_11_4 + 578 X_11_5
  + 995 X_11_6 + 299 X_11_7 + 900 X_11_8 + 900 X_11_9 + 1022 X_11_10 + 914 X_11_12 + 214 X_11_13 + 944 X_11_14
  + 293 X_12_0 + 624 X_12_1 + 513 X_12_2 + 686 X_12_3 + 869 X_12_4 + 460 X_12_5 + 294 X_12_6 + 741 X_12_7
  + 302 X_12_8 + 134 X_12_9 + 138 X_12_10 + 914 X_12_11 + 855 X_12_13 + 382 X_12_14 + 623 X_13_0 + 269 X_13_1
  + 603 X_13_2 + 281 X_13_3 + 121 X_13_4 + 443 X_13_5 + 874 X_13_6 + 434 X_13_7 + 774 X_13_8 + 810 X_13_9
  + 979 X_13_10 + 214 X_13_11 + 855 X_13_12 + 803 X_13_14 + 523 X_14_0 + 674 X_14_1 + 751 X_14_2 + 763 X_14_3
  + 869 X_14_4 + 367 X_14_5 + 122 X_14_6 + 890 X_14_7 + 84 X_14_8 + 247 X_14_9 + 495 X_14_10 + 944 X_14_11
  + 382 X_14_12 + 803 X_14_13
  <= 2
 obj3:
  + 720 X_0_1 + 484 X_0_2 + 340 X_0_3 + 376 X_0_4 + 926 X_0_5 + 708 X_0_6 + 940 X_0_7 + 1031 X_0_8
  + 800 X_0_9 + 471 X_0_10 + 403 X_0_11 + 620 X_0_12 + 766 X_0_13 + 1140 X_0_14 + 720 X_1_0 + 263 X_1_2
  + 446 X_1_3 + 344 X_1_4 + 557 X_1_5 + 504 X_1_6 + 221 X_1_7 + 324 X_1_8 + 273 X_1_9 + 486 X_1_10
  + 495 X_1_11 + 466 X_1_12 + 365 X_1_13 + 426 X_1_14 + 484 X_2_0 + 263 X_2_1 + 183 X_2_3 + 146 X_2_4
  + 531 X_2_5 + 375 X_2_6 + 481 X_2_7 + 587 X_2_8 + 328 X_2_9 + 252 X_2_10 + 242 X_2_11 + 300 X_2_12
  + 500 X_2_13 + 662 X_2_14 + 340 X_3_0 + 446 X_3_1 + 183 X_3_2 + 183 X_3_4 + 593 X_3_5 + 386 X_3_6
  + 663 X_3_7 + 770 X_3_8 + 465 X_3_9 + 165 X_3_10 + 109 X_3_11 + 296 X_3_12 + 639 X_3_13 + 837 X_3_14
  + 376 X_4_0 + 344 X_4_1 + 146 X_4_2 + 183 X_4_3 + 674 X_4_5 + 503 X_4_6 + 564 X_4_7 + 657 X_4_8
  + 470 X_4_9 + 327 X_4_10 + 286 X_4_11 + 420 X_4_12 + 462 X_4_13 + 767 X_4_14 + 926 X_5_0 + 557 X_5_1
  + 531 X_5_2 + 593 X_5_3 + 674 X_5_4 + 227 X_5_6 + 616 X_5_7 + 722 X_5_8 + 285 X_5_9 + 459 X_5_10
  + 525 X_5_11 + 308 X_5_12 + 921 X_5_13 + 613 X_5_14 + 708 X_6_0 + 504 X_6_1 + 375 X_6_2 + 386 X_6_3
  + 503 X_6_4 + 227 X_6_5 + 641 X_6_7 + 758 X_6_8 + 295 X_6_9 + 237 X_6_10 + 305 X_6_11 + 89 X_6_12
  + 842 X_6_13 + 714 X_6_14 + 940 X_7_0 + 221 X_7_1 + 481 X_7_2 + 663 X_7_3 + 564 X_7_4 + 616 X_7_5
  + 641 X_7_6 + 117 X_7_8 + 351 X_7_9 + 681 X_7_10 + 701 X_7_11 + 628 X_7_12 + 427 X_7_13 + 228 X_7_14
  + 1031 X_8_0 + 324 X_8_1 + 587 X_8_2 + 770 X_8_3 + 657 X_8_4 + 722 X_8_5 + 758 X_8_6 + 117 X_8_7
  + 466 X_8_9 + 797 X_8_10 + 814 X_8_11 + 746 X_8_12 + 434 X_8_13 + 224 X_8_14 + 800 X_9_0 + 273 X_9_1
  + 328 X_9_2 + 465 X_9_3 + 470 X_9_4 + 285 X_9_5 + 295 X_9_6 + 351 X_9_7 + 466 X_9_8 + 405 X_9_10
  + 450 X_9_11 + 304 X_9_12 + 638 X_9_13 + 425 X_9_14 + 471 X_10_0 + 486 X_10_1 + 252 X_10_2 + 165 X_10_3
  + 327 X_10_4 + 459 X_10_5 + 237 X_10_6 + 681 X_10_7 + 797 X_10_8 + 405 X_10_9 + 68 X_10_11 + 150 X_10_12
  + 752 X_10_13 + 819 X_10_14 + 403 X_11_0 + 495 X_11_1 + 242 X_11_2 + 109 X_11_3 + 286 X_11_4 + 525 X_11_5
  + 305 X_11_6 + 701 X_11_7 + 814 X_11_8 + 450 X_11_9 + 68 X_11_10 + 217 X_11_12 + 731 X_11_13 + 853 X_11_14
  + 620 X_12_0 + 466 X_12_1 + 300 X_12_2 + 296 X_12_3 + 420 X_12_4 + 308 X_12_5 + 89 X_12_6 + 628 X_12_7
  + 746 X_12_8 + 304 X_12_9 + 150 X_12_10 + 217 X_12_11 + 785 X_12_13 + 729 X_12_14 + 766 X_13_0 + 365 X_13_1
  + 500 X_13_2 + 639 X_13_3 + 462 X_13_4 + 921 X_13_5 + 842 X_13_6 + 427 X_13_7 + 434 X_13_8 + 638 X_13_9
  + 752 X_13_10 + 731 X_13_11 + 785 X_13_12 + 645 X_13_14 + 1140 X_14_0 + 426 X_14_1 + 662 X_14_2 + 837 X_14_3
  + 767 X_14_4 + 613 X_14_5 + 714 X_14_6 + 228 X_14_7 + 224 X_14_8 + 425 X_14_9 + 819 X_14_10 + 853 X_14_11
  + 729 X_14_12 + 645 X_14_13
  <= 3
Bounds
 1 <= U1 <= 14
 1 <= U2 <= 14
 1 <= U3 <= 14
 1 <= U4 <= 14
 1 <= U5 <= 14
 1 <= U6 <= 14
 1 <= U7 <= 14
 1 <= U8 <= 14
 1 <= U9 <= 14
 1 <= U10 <= 14
 1 <= U11 <= 14
 1 <= U12 <= 14
 1 <= U13 <= 14
 1 <= U14 <= 14
Binary
 X_0_1
 X_0_2
 X_0_3
 X_0_4
 X_0_5
 X_0_6
 X_0_7
 X_0_8
 X_0_9
 X_0_10
 X_0_11
 X_0_12
 X_0_13
 X_0_14
 X_1_0
 X_1_2
 X_1_3
 X_1_4
 X_1_5
 X_1_6
 X_1_7
 X_1_8
 X_1_9
 X_1_10
 X_1_11
 X_1_12
 X_1_13
 X_1_14
 X_2_0
 X_2_1
 X_2_3
 X_2_4
 X_2_5
 X_2_6
 X_2_7
 X_2_8
 X_2_9
 X_2_10
 X_2_11
 X_2_12
 X_2_13
 X_2_14
 X_3_0
 X_3_1
 X_3_2
 X_3_4
 X_3_5
 X_3_6
 X_3_7
 X_3_8
 X_3_9
 X_3_10
 X_3_11
 X_3_12
 X_3_13
 X_3_14
 X_4_0
 X_4_1
 X_4_2
 X_4_3
 X_4_5
 X_4_6
 X_4_7
 X_4_8
 X_4_9
 X_4_10
 X_4_11
 X_4_12
 X_4_13
 X_4_14
 X_5_0
 X_5_1
 X_5_2
 X_5_3
 X_5_4
 X_5_6
 X_5_7
 X_5_8
 X_5_9
 X_5_10
 X_5_11
 X_5_12
 X_5_13
 X_5_14
 X_6_0
 X_6_1
 X_6_2
 X_6_3
 X_6_4
 X_6_5
 X_6_7
 X_6_8
 X_6_9
 X_6_10
 X_6_11
 X_6_12
 X_6_13
 X_6_14
 X_7_0
 X_7_1
 X_7_2
 X_7_3
 X_7_4
 X_7_5
 X_7_6
 X_7_8
 X_7_9
 X_7_10
 X_7_11
 X_7_12
 X_7_13
 X_7_14
 X_8_0
 X_8_1
 X_8_2
 X_8_3
 X_8_4
 X_8_5
 X_8_6
 X_8_7
 X_8_9
 X_8_10
 X_8_11
 X_8_12
 X_8_13
 X_8_14
 X_9_0
 X_9_1
 X_9_2
 X_9_3
 X_9_4
 X_9_5
 X_9_6
 X_9_7
 X_9_8
 X_9_10
 X_9_11
 X_9_12
 X_9_13
 X_9_14
 X_10_0
 X_10_1
 X_10_2
 X_10_3
 X_10_4
 X_10_5
 X_10_6
 X_10_7
 X_10_8
 X_10_9
 X_10_11
 X_10_12
 X_10_13
 X_10_14
 X_11_0
 X_11_1
 X_11_2
 X_11_3
 X_11_4
 X_11_5
 X_11_6
 X_11_7
 X_11_8
 X_11_9
 X_11_10
 X_11_12
 X_11_13
 X_11_14
 X_12_0
 X_12_1
 X_12_2
 X_12_3
 X_12_4
 X_12_5
 X_12_6
 X_12_7
 X_12_8
 X_12_9
 X_12_10
 X_12_11
 X_12_13
 X_12_14
 X_13_0
 X_13_1
 X_13_2
 X_13_3
 X_13_4
 X_13_5
 X_13_6
 X_13_7
 X_13_8
 X_13_9
 X_13_10
 X_13_11
 X_13_12
 X_13_14
 X_14_0
 X_14_1
 X_14_2
 X_14_3
 X_14_4
 X_14_5
 X_14_6
 X_14_7
 X_14_8
 X_14_9
 X_14_10
 X_14_11
 X_14_12
 X_14_13
End
